(set-option :status unknown)

; Generated by Astral

(set-logic QF_ALL)
(declare-sort LS_t 0)
(declare-heap (LS_t LS_t))

(declare-const x1 LS_t)
(declare-const x2 LS_t)
(declare-const x3 LS_t)
(declare-const x4 LS_t)
(declare-const x5 LS_t)
(declare-const x6 LS_t)

(assert 
  (and 
    (or 
      (and 
        (or 
          (or 
            (or (ls x6 x6) (ls x2 x4)
          )
 
            (or (ls x3 x6) (pto x5 x4)
          )

        )
 
          (and 
            (or (pto x1 x1) (ls x1 x2)
          )
 
            (sep (pto x2 x5) (pto x2 x4)
          )

        )

      )
 
        (sep 
          (or 
            (or (ls x1 x3) (pto x5 x4)
          )
 
            (or (pto x1 x4) (ls x3 x1)
          )

        )
 
          (or 
            (or (ls x4 x6) (pto x3 x1)
          )
 
            (and (pto x1 x4) (pto x2 x2)
          )

        )

      )

    )
 
      (sep 
        (and 
          (or 
            (and (ls x3 x3) (ls x5 x4)
          )
 
            (and (pto x3 x4) (pto x3 x4)
          )

        )
 
          (and 
            (and (pto x6 x1) (pto x4 x4)
          )
 
            (or (pto x5 x3) (pto x3 x6)
          )

        )

      )
 
        (and 
          (or 
            (and (pto x1 x1) (pto x6 x6)
          )
 
            (and (pto x4 x6) (pto x1 x6)
          )

        )
 
          (and 
            (sep (ls x6 x1) (ls x5 x1)
          )
 
            (sep (pto x1 x2) (pto x5 x6)
          )

        )

      )

    )

  )
 (not 
    (or 
      (and 
        (sep 
          (or 
            (sep (pto x3 x5) (pto x2 x5)
          )
 
            (sep (ls x2 x2) (ls x1 x1)
          )

        )
 
          (sep 
            (or (pto x4 x6) (pto x6 x2)
          )
 
            (sep (pto x2 x4) (pto x4 x2)
          )

        )

      )
 
        (or 
          (or 
            (sep (pto x5 x6) (pto x2 x1)
          )
 
            (and (pto x6 x5) (pto x2 x1)
          )

        )
 
          (sep 
            (and (pto x5 x1) (pto x2 x4)
          )
 
            (and (pto x5 x1) (pto x4 x3)
          )

        )

      )

    )
 
      (sep 
        (or 
          (or 
            (and (pto x4 x1) (pto x4 x3)
          )
 
            (sep (pto x3 x5) (pto x2 x5)
          )

        )
 
          (or 
            (sep (pto x1 x2) (ls x2 x5)
          )
 
            (and (ls x6 x6) (pto x1 x2)
          )

        )

      )
 
        (or 
          (and 
            (and (pto x2 x6) (pto x1 x1)
          )
 
            (and (pto x5 x1) (pto x4 x6)
          )

        )
 
          (sep 
            (and (pto x6 x2) (ls x5 x2)
          )
 
            (and (pto x3 x3) (pto x5 x3)
          )

        )

      )

    )

  )
)
)
)

(check-sat)
